58 749
4 7 8 9 12 14 16 18 24 26 27 29 30 31 33 34 35 37 40 42 44 46 48 49 50 52 53 54 55
2 3 4 6 11 14 18 20 21 23 24 25 28 29 32 33 35 36 40 45 46 47 53 54 55 57
1 3 6 7 8 9 13 20 21 24 26 27 29 33 36 44 46 51 53 54 56 57
1 2 7 8 10 14 16 17 19 20 21 22 23 24 25 28 30 31 32 33 35 36 37 39 43 45 47 51 57
0 1 11 12 13 14 17 19 22 24 25 29 30 31 33 35 40 42 45 46 49 50 51 54 56 57
9 11 12 13 14 16 19 25 29 30 32 33 35 36 38 40 41 42 45 46 47 48 49 55
1 2 7 9 10 11 12 13 16 19 20 21 24 25 26 27 30 32 36 37 39 41 42 43 44 48 49 50 52 54 56
0 2 3 6 12 13 14 16 17 18 20 26 28 30 34 35 38 39 40 41 42 44 49 51 53 55
0 2 3 9 13 14 15 16 17 18 19 21 22 23 25 35 36 37 38 40 41 43 44 45 46 47 49 52 54
0 2 5 6 8 10 14 15 17 20 22 23 24 25 27 29 32 35 36 39 45 49 51 52 55 56
3 6 9 12 13 15 16 17 20 22 23 24 27 29 32 33 39 41 42 43 45 48 49 50 53
1 4 5 6 14 16 17 21 22 25 27 30 33 34 35 37 38 39 40 41 43 44 48 50 56 57
0 4 5 6 7 10 13 15 18 20 22 25 26 28 30 32 35 37 38 39 44 46 49 51 52 53 55 56 57
2 4 5 6 7 8 10 12 14 16 18 21 22 24 26 27 29 31 34 36 37 40 43 47 53 56 57
0 1 3 4 5 7 8 9 11 13 15 17 19 20 21 23 24 29 32 33 34 35 38 41 43 45 47 49 50 51 52 57
8 9 10 12 14 16 19 24 28 31 32 34 35 40 43 44 45 47 48 50 51 53 54 56 57
0 3 5 6 7 8 10 11 13 15 19 21 23 24 25 27 29 31 32 33 34 38 42 44 45 47 50 51 55
3 4 7 8 9 10 11 14 20 21 22 23 28 29 30 36 39 44 49 53 56 57
0 1 7 8 12 13 19 20 23 24 26 29 30 34 35 37 39 40 41 42 44 45 46 50 55 56 57
3 4 5 6 8 14 15 16 18 21 22 23 24 26 27 28 29 33 38 42 43 44 46 47 48 49 51
1 2 3 6 7 9 10 12 14 17 18 22 27 32 35 36 41 42 43 47 51 54 55 57
1 2 3 6 8 11 13 14 16 17 19 22 23 25 28 30 35 36 37 38 39 40 41 42 43 46 50 52 53 54 57
3 4 8 9 10 11 12 13 17 19 20 21 25 28 29 30 32 36 37 39 46 47 48 50 52 53 55 56 57
1 3 8 9 10 14 16 17 18 19 21 24 26 27 33 35 36 38 43 45 48 49 50 52 55 56
0 1 2 3 4 6 9 10 13 14 15 16 18 19 23 25 27 28 30 34 39 40 44 45 46 48 50 51 53
1 3 4 5 6 8 9 11 12 16 21 22 24 27 28 32 36 37 42 49 51 53 54 57
0 2 6 7 12 13 18 19 23 28 29 31 32 35 36 37 41 47 48 49 51 53 54
0 2 6 9 10 11 13 16 19 20 23 24 25 29 32 33 35 39 44 48 49 50 51 52 53
1 3 7 12 15 17 19 21 22 24 25 26 30 31 32 33 37 40 43 45 47 48 49 50 51 56
0 1 2 4 5 9 10 13 14 16 17 18 19 22 26 27 30 32 33 35 37 38 41 43 44 47 52 53 54 56
0 3 4 5 6 7 11 12 17 18 21 22 24 28 29 32 33 38 41 44 48 53
0 3 4 13 15 16 26 28 33 38 39 41 42 45 49 51 54 55
1 3 5 6 9 10 12 14 15 16 20 22 25 26 27 28 29 30 33 36 38 43 44 50 51 54 57
0 1 2 3 4 5 10 11 14 16 19 23 27 28 29 30 31 32 38 41 42 43 48 49 52 53 56
0 7 11 13 14 15 16 18 24 35 37 38 40 41 45 48 49 50 51 52 54 56 57
0 1 3 4 5 7 8 9 11 12 14 15 18 20 21 23 26 27 29 34 36 40 43 44 47 55
1 2 3 5 6 8 9 13 17 20 21 22 23 25 26 32 35 38 39 44 45 46 47 48 53 54 56
0 3 6 8 11 12 13 18 21 22 25 26 28 29 34 39 40 41 42 44 54 56
5 7 8 11 12 14 16 19 21 23 29 30 31 32 33 34 36 39 41 44 52 55 57
3 6 7 9 10 11 12 17 18 21 22 24 27 31 36 37 38 40 41 43 44 50 51 54
0 1 4 5 7 8 11 13 15 18 21 24 28 34 35 37 39 41 42 43 44 45 46 47 48 49 50 51 52 54 56
5 6 7 8 10 11 14 18 20 21 26 29 30 31 33 34 37 38 39 40 51 55 56 57
0 4 5 6 7 10 16 18 19 20 21 25 31 33 37 40 44 47 48 49 51 54 57
3 6 8 10 11 13 14 15 19 20 21 23 28 29 32 33 35 39 40 44 45 46 50 53 54 57
0 2 6 7 8 11 12 15 16 17 18 19 24 27 29 30 32 35 36 37 38 39 40 42 43 48 51 54
1 3 4 5 8 9 10 14 15 16 18 23 24 28 31 34 36 40 43 46 47 49 53
0 1 2 4 5 8 12 18 19 21 22 24 36 40 43 45 50 51 53 55
1 3 5 8 13 14 15 16 19 20 22 26 28 29 35 36 40 42 45 49 52 54 55
0 5 6 10 11 15 19 22 23 24 26 27 28 30 33 34 36 40 42 44 49 51 55 56 57
0 4 5 6 7 8 9 10 12 14 17 19 23 25 26 27 28 31 33 34 40 42 45 47 48 50 51 52 54 56 57
0 4 6 10 11 14 15 16 18 21 22 23 24 27 28 32 34 39 40 43 46 49 51 52 53 55 56
2 3 4 7 9 12 14 15 16 19 20 24 25 26 27 28 31 32 34 39 40 41 42 44 46 48 49 50 53
0 6 8 9 12 14 21 22 23 27 29 33 34 38 40 47 49 50 53 54 55 56
0 1 2 7 10 12 13 15 17 21 22 24 25 26 27 29 30 33 36 43 45 46 50 51 52 55
0 1 2 4 6 8 15 20 21 25 26 29 31 32 34 36 37 39 40 42 43 44 47 49 52 57
0 1 5 7 9 12 16 18 20 22 23 31 35 38 41 46 47 48 50 52 53
2 4 6 9 11 12 13 15 17 18 22 23 28 29 33 34 36 37 40 41 48 49 50 52 57
1 2 3 4 11 12 13 14 15 17 18 20 21 22 25 32 34 38 41 42 43 48 49 54 56
